NAME: berlin52
TYPE: TOUR
DIMENSION: 52
DISTANCE: 26778.00
TOUR_SECTION
17
36
14
40
35
25
50
16
47
23
29
4
8
21
46
43
2
7
13
6
22
28
39
32
48
42
30
41
9
44
37
34
26
11
27
20
18
3
45
33
10
51
1
24
19
31
15
52
38
12
49
5
EOF